(set-option :produce-models true)
(define-fun ceil ((x Real)) Int (ite (= (to_int x) x) (to_int x) (+ (to_int x) 1)))
(define-fun min2 ((x Int) (y Int)) Int (ite (< x y) x y))
(define-fun max2 ((x Int) (y Int)) Int (ite (> x y) x y))
(define-fun sqrt ((x Real)) Real (^ x 0.5))

(declare-const input_size0 Int)
(set-info :example-input_size0 40)
(declare-const input_size1 Int)
(set-info :example-input_size1 29)
(declare-const input_stride0 Int)
(set-info :example-input_stride0 1)
(declare-const input_stride1 Int)
(set-info :example-input_stride1 40)
(declare-const input_storage_offset Int)
(set-info :example-input_storage_offset 0)
(define-fun ge () Bool (>= input_size0 0))
(assert ge)
(define-fun ge_1 () Bool (>= input_size1 0))
(assert ge_1)
(define-fun eq () Bool (= input_size0 0))
(define-fun not_ () Bool (not eq))
(assert not_)
(define-fun sub () Int (- input_size0 1))
(define-fun mul () Int (* input_stride0 sub))
(define-fun add () Int (+ 1 mul))
(define-fun eq_1 () Bool (= input_size1 0))
(define-fun not__1 () Bool (not eq_1))
(assert not__1)
(define-fun sub_1 () Int (- input_size1 1))
(define-fun mul_1 () Int (* input_stride1 sub_1))
(define-fun add_1 () Int (+ add mul_1))
(define-fun mul_2 () Int (* 8 add_1))
(define-fun mul_3 () Int (* input_size0 input_size1))
(define-fun eq_2 () Bool (= mul_3 0))
(define-fun not__2 () Bool (not eq_2))
(assert not__2)
(define-fun eq_3 () Bool (= input_size1 1))
(define-fun not__3 () Bool (not eq_3))
(assert not__3)
(define-fun eq_4 () Bool (= input_stride1 1))
(define-fun not__4 () Bool (not eq_4))
(assert not__4)
(define-fun lt () Bool (< input_size1 2))
(define-fun not__5 () Bool (not lt))
(assert not__5)
(define-fun lt_1 () Bool (< input_size0 2))
(define-fun not__6 () Bool (not lt_1))
(assert not__6)
(define-fun lt_2 () Bool (< input_stride1 input_stride0))
(define-fun not__7 () Bool (not lt_2))
(assert not__7)
(define-fun eq_5 () Bool (= input_stride0 1))
(assert eq_5)
(define-fun eq_6 () Bool (= input_stride1 input_size0))
(assert eq_6)
(define-fun ge_2 () Bool (>= input_storage_offset 0))
(assert ge_2)
(define-fun add_2 () Int (+ input_storage_offset add_1))
(define-fun mul_4 () Int (* 8 add_2))
(define-fun eq_7 () Bool (= input_size0 1))
(define-fun not__8 () Bool (not eq_7))
(assert not__8)
(define-fun eq_8 () Bool (= input_size0 -1))
(define-fun not__9 () Bool (not eq_8))
(assert not__9)
(define-fun eq_9 () Bool (= input_size1 -1))
(define-fun not__10 () Bool (not eq_9))
(assert not__10)
(define-fun mul_5 () Int (* mul_3 30))
(define-fun mul_6 () Int (* mul_5 4771))
(define-fun eq_10 () Bool (= mul_6 0))
(define-fun not__11 () Bool (not eq_10))
(assert not__11)
(define-fun eq_11 () Bool (= input_size0 input_size0))
(assert eq_11)
(define-fun eq_12 () Bool (= input_size1 input_size1))
(assert eq_12)
(define-fun eq_13 () Bool (= mul_5 0))
(define-fun not__12 () Bool (not eq_13))
(assert not__12)
(define-fun lt_3 () Bool (< 0 input_stride0))
(assert lt_3)
(define-fun eq_14 () Bool (= input_stride1 0))
(define-fun not__13 () Bool (not eq_14))
(assert not__13)
(define-fun lt_4 () Bool (< input_stride1 0))
(define-fun not__14 () Bool (not lt_4))
(assert not__14)
(define-fun gt () Bool (> input_size1 1))
(assert gt)
(define-fun mul_7 () Int (* input_stride1 input_size1))
(define-fun lt_5 () Bool (< 1 mul_7))
(assert lt_5)
(define-fun le () Bool (<= input_size0 input_size0))
(assert le)
(define-fun le_1 () Bool (<= input_size1 input_size1))
(assert le_1)
(define-fun mul_8 () Int (* 30 input_size1))
(define-fun mul_9 () Int (* mul_8 input_size0))
(define-fun mul_10 () Int (* mul_8 sub))
(define-fun add_3 () Int (+ 1 mul_10))
(define-fun mul_11 () Int (* 30 sub_1))
(define-fun add_4 () Int (+ add_3 mul_11))
(define-fun add_5 () Int (+ add_4 29))
(define-fun mul_12 () Int (* 4 add_5))
(define-fun eq_15 () Bool (= mul_8 mul_8))
(assert eq_15)
(define-fun lt_6 () Bool (< 1 mul_8))
(assert lt_6)
(define-fun mul_13 () Int (* input_size0 30))
(define-fun mul_14 () Int (* mul_13 60))
(define-fun mul_15 () Int (* mul_14 60))
(define-fun eq_16 () Bool (= mul_15 0))
(define-fun not__15 () Bool (not eq_16))
(assert not__15)
(define-fun eq_17 () Bool (= mul_13 0))
(define-fun not__16 () Bool (not eq_17))
(assert not__16)
(define-fun eq_18 () Bool (= mul_4 0))
(define-fun not__17 () Bool (not eq_18))
(assert not__17)
(define-fun eq_19 () Bool (= mul_12 0))
(define-fun not__18 () Bool (not eq_19))
(assert not__18)
(define-fun output0_size0 () Int input_size0)
(define-fun output0_size1 () Int input_size1)
(define-fun output0_size2 () Int 30)
(define-fun output0_stride0 () Int mul_8)
(define-fun output0_stride1 () Int 30)
(define-fun output0_stride2 () Int 1)
(define-fun output0_storage_offset () Int 0)
(define-fun output1_size0 () Int input_size0)
(define-fun output1_size1 () Int 30)
(define-fun output1_size2 () Int 60)
(define-fun output1_size3 () Int 60)
(define-fun output1_stride0 () Int 0)
(define-fun output1_stride1 () Int 3600)
(define-fun output1_stride2 () Int 60)
(define-fun output1_stride3 () Int 1)
(define-fun output1_storage_offset () Int 0)
(define-fun output2_size0 () Int input_size0)
(define-fun output2_size1 () Int 30)
(define-fun output2_stride0 () Int 0)
(define-fun output2_stride1 () Int 1)
(define-fun output2_storage_offset () Int 0)
(check-sat)
(get-value (input_size0 input_size1 input_stride0 input_stride1 input_storage_offset output0_size0 output0_size1 output0_size2 output0_stride0 output0_stride1 output0_stride2 output0_storage_offset output1_size0 output1_size1 output1_size2 output1_size3 output1_stride0 output1_stride1 output1_stride2 output1_stride3 output1_storage_offset output2_size0 output2_size1 output2_stride0 output2_stride1 output2_storage_offset))
